NAME : input100_4.txt .out.tour
COMMENT : Tour for input100_4.txt .tsp (Length 1079.52)
TYPE : TOUR
DIMENSION : 100
TOUR_SECTION
1
16
47
78
55
57
17
2
91
19
73
26
28
58
54
89
7
41
22
52
4
59
62
49
74
13
83
82
33
60
87
72
95
70
8
98
40
99
71
23
92
56
10
86
80
46
97
68
24
45
6
11
96
37
32
88
30
3
79
42
51
38
9
35
67
85
94
84
12
14
18
81
29
61
65
76
27
64
69
21
50
43
31
66
48
20
77
34
75
36
5
63
90
39
93
100
15
25
44
53
1
